n_res = 5;
rcap = [18, 16, 17, 89, 87];
rtype = [1, 1, 1, 2, 2];
n_tasks = 16;
modes = [ {1, 2, 3}, {4, 5, 6}, {7, 8, 9}, {10, 11, 12}, {13, 14, 15}, {16, 17, 18}, {19, 20, 21}, {22, 23, 24}, {25, 26, 27}, {28, 29, 30}, {31, 32, 33}, {34, 35, 36}, {37, 38, 39}, {40, 41, 42}, {43, 44, 45}, {46, 47, 48} ];
succ = [ {4, 5, 6}, {9, 10, 12}, {9, 11, 16}, {11, 13, 15}, {14, 16}, {7, 12}, {8, 9, 15}, {10, 13}, {14}, {11}, {14}, {13, 15}, {16}, {}, {}, {} ];
n_opt = 48;
dur = [4, 6, 10, 1, 2, 6, 2, 2, 6, 1, 5, 10, 2, 6, 10, 2, 3, 5, 2, 2, 7, 2, 4, 7, 2, 8, 8, 2, 6, 10, 1, 9, 9, 1, 3, 4, 1, 9, 9, 2, 2, 9, 6, 8, 8, 3, 5, 8];
rreq = [|  9,  5,  5,  5,  5,  5,  8,  6,  5,  6,  6,  5,  6,  6,  5,  6,  6,  4,  6,  7,  6, 10, 10, 10,  4,  4,  3,  7,  7,  5,  6,  4,  3,  4,  4,  4, 10,  8,  8,  4,  5,  2,  8,  7,  7,  6,  4,  2
        |  7,  6,  5,  8,  6,  5,  5,  5,  5,  7,  7,  6,  7,  6,  5,  9,  9,  9, 10, 10,  5,  6,  5,  5,  5,  5,  3,  3,  3,  2,  7,  5,  6,  7,  7,  6,  3,  2,  2,  5,  4,  2,  8,  4,  6,  8,  8,  7
        | 10, 10, 10,  5,  5,  3,  9,  9,  9,  8,  7,  7,  9,  8,  7,  7,  6,  6,  6, 10,  3,  2,  2,  2,  7,  5,  5,  6,  5,  2,  4,  2,  3,  2,  1,  1,  9,  9,  9,  4,  4,  3,  6,  5,  5,  8,  7,  6
        |  6,  5,  4,  9,  7,  6,  6,  7,  5,  5,  5,  2,  7,  6,  3,  5,  4,  4,  7,  7,  5,  7,  5,  3,  5,  2,  2,  7,  6,  5,  7,  7,  6,  9,  8,  5,  9,  7,  8,  5,  6,  4, 10,  5,  5,  3,  3,  3
        |  7,  6,  4,  8,  4,  3,  7,  8,  6,  5,  5,  5, 10,  7,  5,  3,  2,  2,  6,  5,  4,  6,  5,  3,  5,  2,  3,  2,  2,  1,  9,  9,  9,  8,  6,  2,  7,  3,  1,  9,  8,  6, 10,  9,  7,  7,  4,  3 |];
